
        $ From http://www.csplib.org/Problems/prob009/data/helmut.pdf
        $ Problem number 171
        $ Sequence length : 25
        language ESSENCE' 1.0
        letting sizemaster be 541
        letting sizes be sequence(3,5,27,32,33,37,47,50,53,56,57,69,71,78,97,98,109,111,126,144,165,169,183,189,232)
        